instances/knapsack/knapsack_general/knapsack_60_1_5.kp
42
60
4767

642 64.0 742 123.01
615 62.0 715 106.0
451 45.0 551 72.13
315 32.0 415 47.22
845 84.0 945 188.88
849 85.0 949 166.49
162 16.0 262 32.75
905 90.0 1005 160.24
359 36.0 459 78.43
42 4.0 142 27.08
320 32.0 420 53.77
726 73.0 826 108.49
816 82.0 916 108.76
106 11.0 206 32.75
562 56.0 662 127.24
896 90.0 996 172.76
304 30.0 404 46.04
463 46.0 563 77.25
257 26.0 357 38.43
847 85.0 947 109.94
174 17.0 274 40.91
24 2.0 124 14.3
914 91.0 1014 128.84
128 13.0 228 28.34
567 57.0 667 94.88
868 87.0 968 179.63
331 33.0 431 53.25
7 1.0 107 17.26
447 45.0 547 76.58
256 26.0 356 45.98
691 69.0 791 102.71
753 75.0 853 151.74
920 92.0 1020 187.96
231 23.0 331 57.34
543 54.0 643 121.45
743 74.0 843 145.7
676 68.0 776 100.77
435 44.0 535 66.01
509 51.0 609 95.41
182 18.0 282 45.38
872 87.0 972 173.48
898 90.0 998 190.24
422 42.0 522 93.85
452 45.0 552 109.08
567 57.0 667 111.67
741 74.0 841 141.5
253 25.0 353 63.51
773 77.0 873 130.68
199 20.0 299 53.76
266 27.0 366 68.64
695 70.0 795 120.23
43 4.0 143 19.2
237 24.0 337 46.54
153 15.0 253 40.8
254 25.0 354 55.44
532 53.0 632 94.49
40 4.0 140 19.45
483 48.0 583 101.34
30 3.0 130 21.9
813 81.0 913 176.81

42
[9872]

[[26, 124, 92, 37, 56, 25, 56, 6, 40, 98, 159, 115, 118, 32, 81, 34, 129, 134, 21, 152, 14, 90, 13, 75, 63, 80, 77, 42, 163, 63, 70, 150, 153, 158, 86, 147, 87, 99, 116, 162, 53, 113, 153, 7, 89, 114, 44, 148, 59, 154, 101, 110, 14, 118, 58, 18, 71, 130, 88, 40]]

[[705, 178, 98, 398, 20, 580, 321, 948, 966, 253, 679, 521, 207, 541, 441, 107, 807, 490, 840, 458, 117, 443, 937, 427, 62, 207, 850, 882, 270, 963, 642, 252, 399, 354, 6, 874, 587, 414, 708, 105, 975, 173, 549, 871, 638, 136, 212, 728, 486, 221, 614, 358, 164, 756, 773, 175, 807, 206, 957, 760]]
