instances/knapsack/knapsack_general/knapsack_60_1_5.lp
\ Model knapsack_60_1_5
\ LP format - for model browsing. Use MPS format to capture full model detail.
\ Signature: 0x44a844bc7147e028
Minimize
  - 742 y[0] - 715 y[1] - 551 y[2] - 415 y[3] - 945 y[4] - 949 y[5]
   - 262 y[6] - 1005 y[7] - 459 y[8] - 142 y[9] - 420 y[10] - 826 y[11]
   - 916 y[12] - 206 y[13] - 662 y[14] - 996 y[15] - 404 y[16] - 563 y[17]
   - 357 y[18] - 947 y[19] - 274 y[20] - 124 y[21] - 1014 y[22] - 228 y[23]
   - 667 y[24] - 968 y[25] - 431 y[26] - 107 y[27] - 547 y[28] - 356 y[29]
   - 791 y[30] - 853 y[31] - 1020 y[32] - 331 y[33] - 643 y[34] - 843 y[35]
   - 776 y[36] - 535 y[37] - 609 y[38] - 282 y[39] - 972 y[40] - 998 y[41]
   - 522 y[42] - 552 y[43] - 667 y[44] - 841 y[45] - 353 y[46] - 873 y[47]
   - 299 y[48] - 366 y[49] - 795 y[50] - 143 y[51] - 337 y[52] - 253 y[53]
   - 354 y[54] - 632 y[55] - 140 y[56] - 583 y[57] - 130 y[58] - 913 y[59]
Subject To
 primal_upper: 642 y[0] + 615 y[1] + 451 y[2] + 315 y[3] + 845 y[4]
   + 849 y[5] + 162 y[6] + 905 y[7] + 359 y[8] + 42 y[9] + 320 y[10]
   + 726 y[11] + 816 y[12] + 106 y[13] + 562 y[14] + 896 y[15] + 304 y[16]
   + 463 y[17] + 257 y[18] + 847 y[19] + 174 y[20] + 24 y[21] + 914 y[22]
   + 128 y[23] + 567 y[24] + 868 y[25] + 331 y[26] + 7 y[27] + 447 y[28]
   + 256 y[29] + 691 y[30] + 753 y[31] + 920 y[32] + 231 y[33] + 543 y[34]
   + 743 y[35] + 676 y[36] + 435 y[37] + 509 y[38] + 182 y[39] + 872 y[40]
   + 898 y[41] + 422 y[42] + 452 y[43] + 567 y[44] + 741 y[45] + 253 y[46]
   + 773 y[47] + 199 y[48] + 266 y[49] + 695 y[50] + 43 y[51] + 237 y[52]
   + 153 y[53] + 254 y[54] + 532 y[55] + 40 y[56] + 483 y[57] + 30 y[58]
   + 813 y[59] + 64 z[0] + 62 z[1] + 45 z[2] + 32 z[3] + 84 z[4] + 85 z[5]
   + 16 z[6] + 90 z[7] + 36 z[8] + 4 z[9] + 32 z[10] + 73 z[11] + 82 z[12]
   + 11 z[13] + 56 z[14] + 90 z[15] + 30 z[16] + 46 z[17] + 26 z[18]
   + 85 z[19] + 17 z[20] + 2 z[21] + 91 z[22] + 13 z[23] + 57 z[24]
   + 87 z[25] + 33 z[26] + z[27] + 45 z[28] + 26 z[29] + 69 z[30]
   + 75 z[31] + 92 z[32] + 23 z[33] + 54 z[34] + 74 z[35] + 68 z[36]
   + 44 z[37] + 51 z[38] + 18 z[39] + 87 z[40] + 90 z[41] + 42 z[42]
   + 45 z[43] + 57 z[44] + 74 z[45] + 25 z[46] + 77 z[47] + 20 z[48]
   + 27 z[49] + 70 z[50] + 4 z[51] + 24 z[52] + 15 z[53] + 25 z[54]
   + 53 z[55] + 4 z[56] + 48 z[57] + 3 z[58] + 81 z[59] <= 4767
 primal_lower0: - 26 y[0] - 124 y[1] - 92 y[2] - 37 y[3] - 56 y[4]
   - 25 y[5] - 56 y[6] - 6 y[7] - 40 y[8] - 98 y[9] - 159 y[10] - 115 y[11]
   - 118 y[12] - 32 y[13] - 81 y[14] - 34 y[15] - 129 y[16] - 134 y[17]
   - 21 y[18] - 152 y[19] - 14 y[20] - 90 y[21] - 13 y[22] - 75 y[23]
   - 63 y[24] - 80 y[25] - 77 y[26] - 42 y[27] - 163 y[28] - 63 y[29]
   - 70 y[30] - 150 y[31] - 153 y[32] - 158 y[33] - 86 y[34] - 147 y[35]
   - 87 y[36] - 99 y[37] - 116 y[38] - 162 y[39] - 53 y[40] - 113 y[41]
   - 153 y[42] - 7 y[43] - 89 y[44] - 114 y[45] - 44 y[46] - 148 y[47]
   - 59 y[48] - 154 y[49] - 101 y[50] - 110 y[51] - 14 y[52] - 118 y[53]
   - 58 y[54] - 18 y[55] - 71 y[56] - 130 y[57] - 88 y[58] - 40 y[59]
   + 705 u[0] + 178 u[1] + 98 u[2] + 398 u[3] + 20 u[4] + 580 u[5]
   + 321 u[6] + 948 u[7] + 966 u[8] + 253 u[9] + 679 u[10] + 521 u[11]
   + 207 u[12] + 541 u[13] + 441 u[14] + 107 u[15] + 807 u[16] + 490 u[17]
   + 840 u[18] + 458 u[19] + 117 u[20] + 443 u[21] + 937 u[22] + 427 u[23]
   + 62 u[24] + 207 u[25] + 850 u[26] + 882 u[27] + 270 u[28] + 963 u[29]
   + 642 u[30] + 252 u[31] + 399 u[32] + 354 u[33] + 6 u[34] + 874 u[35]
   + 587 u[36] + 414 u[37] + 708 u[38] + 105 u[39] + 975 u[40] + 173 u[41]
   + 549 u[42] + 871 u[43] + 638 u[44] + 136 u[45] + 212 u[46] + 728 u[47]
   + 486 u[48] + 221 u[49] + 614 u[50] + 358 u[51] + 164 u[52] + 756 u[53]
   + 773 u[54] + 175 u[55] + 807 u[56] + 206 u[57] + 957 u[58] + 760 u[59]
   <= 9872
 mccormick1[0]: - u[0] + z[0] <= 0
 mccormick1[1]: - u[1] + z[1] <= 0
 mccormick1[2]: - u[2] + z[2] <= 0
 mccormick1[3]: - u[3] + z[3] <= 0
 mccormick1[4]: - u[4] + z[4] <= 0
 mccormick1[5]: - u[5] + z[5] <= 0
 mccormick1[6]: - u[6] + z[6] <= 0
 mccormick1[7]: - u[7] + z[7] <= 0
 mccormick1[8]: - u[8] + z[8] <= 0
 mccormick1[9]: - u[9] + z[9] <= 0
 mccormick1[10]: - u[10] + z[10] <= 0
 mccormick1[11]: - u[11] + z[11] <= 0
 mccormick1[12]: - u[12] + z[12] <= 0
 mccormick1[13]: - u[13] + z[13] <= 0
 mccormick1[14]: - u[14] + z[14] <= 0
 mccormick1[15]: - u[15] + z[15] <= 0
 mccormick1[16]: - u[16] + z[16] <= 0
 mccormick1[17]: - u[17] + z[17] <= 0
 mccormick1[18]: - u[18] + z[18] <= 0
 mccormick1[19]: - u[19] + z[19] <= 0
 mccormick1[20]: - u[20] + z[20] <= 0
 mccormick1[21]: - u[21] + z[21] <= 0
 mccormick1[22]: - u[22] + z[22] <= 0
 mccormick1[23]: - u[23] + z[23] <= 0
 mccormick1[24]: - u[24] + z[24] <= 0
 mccormick1[25]: - u[25] + z[25] <= 0
 mccormick1[26]: - u[26] + z[26] <= 0
 mccormick1[27]: - u[27] + z[27] <= 0
 mccormick1[28]: - u[28] + z[28] <= 0
 mccormick1[29]: - u[29] + z[29] <= 0
 mccormick1[30]: - u[30] + z[30] <= 0
 mccormick1[31]: - u[31] + z[31] <= 0
 mccormick1[32]: - u[32] + z[32] <= 0
 mccormick1[33]: - u[33] + z[33] <= 0
 mccormick1[34]: - u[34] + z[34] <= 0
 mccormick1[35]: - u[35] + z[35] <= 0
 mccormick1[36]: - u[36] + z[36] <= 0
 mccormick1[37]: - u[37] + z[37] <= 0
 mccormick1[38]: - u[38] + z[38] <= 0
 mccormick1[39]: - u[39] + z[39] <= 0
 mccormick1[40]: - u[40] + z[40] <= 0
 mccormick1[41]: - u[41] + z[41] <= 0
 mccormick1[42]: - u[42] + z[42] <= 0
 mccormick1[43]: - u[43] + z[43] <= 0
 mccormick1[44]: - u[44] + z[44] <= 0
 mccormick1[45]: - u[45] + z[45] <= 0
 mccormick1[46]: - u[46] + z[46] <= 0
 mccormick1[47]: - u[47] + z[47] <= 0
 mccormick1[48]: - u[48] + z[48] <= 0
 mccormick1[49]: - u[49] + z[49] <= 0
 mccormick1[50]: - u[50] + z[50] <= 0
 mccormick1[51]: - u[51] + z[51] <= 0
 mccormick1[52]: - u[52] + z[52] <= 0
 mccormick1[53]: - u[53] + z[53] <= 0
 mccormick1[54]: - u[54] + z[54] <= 0
 mccormick1[55]: - u[55] + z[55] <= 0
 mccormick1[56]: - u[56] + z[56] <= 0
 mccormick1[57]: - u[57] + z[57] <= 0
 mccormick1[58]: - u[58] + z[58] <= 0
 mccormick1[59]: - u[59] + z[59] <= 0
 mccormick2[0]: - y[0] + z[0] <= 0
 mccormick2[1]: - y[1] + z[1] <= 0
 mccormick2[2]: - y[2] + z[2] <= 0
 mccormick2[3]: - y[3] + z[3] <= 0
 mccormick2[4]: - y[4] + z[4] <= 0
 mccormick2[5]: - y[5] + z[5] <= 0
 mccormick2[6]: - y[6] + z[6] <= 0
 mccormick2[7]: - y[7] + z[7] <= 0
 mccormick2[8]: - y[8] + z[8] <= 0
 mccormick2[9]: - y[9] + z[9] <= 0
 mccormick2[10]: - y[10] + z[10] <= 0
 mccormick2[11]: - y[11] + z[11] <= 0
 mccormick2[12]: - y[12] + z[12] <= 0
 mccormick2[13]: - y[13] + z[13] <= 0
 mccormick2[14]: - y[14] + z[14] <= 0
 mccormick2[15]: - y[15] + z[15] <= 0
 mccormick2[16]: - y[16] + z[16] <= 0
 mccormick2[17]: - y[17] + z[17] <= 0
 mccormick2[18]: - y[18] + z[18] <= 0
 mccormick2[19]: - y[19] + z[19] <= 0
 mccormick2[20]: - y[20] + z[20] <= 0
 mccormick2[21]: - y[21] + z[21] <= 0
 mccormick2[22]: - y[22] + z[22] <= 0
 mccormick2[23]: - y[23] + z[23] <= 0
 mccormick2[24]: - y[24] + z[24] <= 0
 mccormick2[25]: - y[25] + z[25] <= 0
 mccormick2[26]: - y[26] + z[26] <= 0
 mccormick2[27]: - y[27] + z[27] <= 0
 mccormick2[28]: - y[28] + z[28] <= 0
 mccormick2[29]: - y[29] + z[29] <= 0
 mccormick2[30]: - y[30] + z[30] <= 0
 mccormick2[31]: - y[31] + z[31] <= 0
 mccormick2[32]: - y[32] + z[32] <= 0
 mccormick2[33]: - y[33] + z[33] <= 0
 mccormick2[34]: - y[34] + z[34] <= 0
 mccormick2[35]: - y[35] + z[35] <= 0
 mccormick2[36]: - y[36] + z[36] <= 0
 mccormick2[37]: - y[37] + z[37] <= 0
 mccormick2[38]: - y[38] + z[38] <= 0
 mccormick2[39]: - y[39] + z[39] <= 0
 mccormick2[40]: - y[40] + z[40] <= 0
 mccormick2[41]: - y[41] + z[41] <= 0
 mccormick2[42]: - y[42] + z[42] <= 0
 mccormick2[43]: - y[43] + z[43] <= 0
 mccormick2[44]: - y[44] + z[44] <= 0
 mccormick2[45]: - y[45] + z[45] <= 0
 mccormick2[46]: - y[46] + z[46] <= 0
 mccormick2[47]: - y[47] + z[47] <= 0
 mccormick2[48]: - y[48] + z[48] <= 0
 mccormick2[49]: - y[49] + z[49] <= 0
 mccormick2[50]: - y[50] + z[50] <= 0
 mccormick2[51]: - y[51] + z[51] <= 0
 mccormick2[52]: - y[52] + z[52] <= 0
 mccormick2[53]: - y[53] + z[53] <= 0
 mccormick2[54]: - y[54] + z[54] <= 0
 mccormick2[55]: - y[55] + z[55] <= 0
 mccormick2[56]: - y[56] + z[56] <= 0
 mccormick2[57]: - y[57] + z[57] <= 0
 mccormick2[58]: - y[58] + z[58] <= 0
 mccormick2[59]: - y[59] + z[59] <= 0
 mccormick3[0]: y[0] + u[0] - z[0] <= 1
 mccormick3[1]: y[1] + u[1] - z[1] <= 1
 mccormick3[2]: y[2] + u[2] - z[2] <= 1
 mccormick3[3]: y[3] + u[3] - z[3] <= 1
 mccormick3[4]: y[4] + u[4] - z[4] <= 1
 mccormick3[5]: y[5] + u[5] - z[5] <= 1
 mccormick3[6]: y[6] + u[6] - z[6] <= 1
 mccormick3[7]: y[7] + u[7] - z[7] <= 1
 mccormick3[8]: y[8] + u[8] - z[8] <= 1
 mccormick3[9]: y[9] + u[9] - z[9] <= 1
 mccormick3[10]: y[10] + u[10] - z[10] <= 1
 mccormick3[11]: y[11] + u[11] - z[11] <= 1
 mccormick3[12]: y[12] + u[12] - z[12] <= 1
 mccormick3[13]: y[13] + u[13] - z[13] <= 1
 mccormick3[14]: y[14] + u[14] - z[14] <= 1
 mccormick3[15]: y[15] + u[15] - z[15] <= 1
 mccormick3[16]: y[16] + u[16] - z[16] <= 1
 mccormick3[17]: y[17] + u[17] - z[17] <= 1
 mccormick3[18]: y[18] + u[18] - z[18] <= 1
 mccormick3[19]: y[19] + u[19] - z[19] <= 1
 mccormick3[20]: y[20] + u[20] - z[20] <= 1
 mccormick3[21]: y[21] + u[21] - z[21] <= 1
 mccormick3[22]: y[22] + u[22] - z[22] <= 1
 mccormick3[23]: y[23] + u[23] - z[23] <= 1
 mccormick3[24]: y[24] + u[24] - z[24] <= 1
 mccormick3[25]: y[25] + u[25] - z[25] <= 1
 mccormick3[26]: y[26] + u[26] - z[26] <= 1
 mccormick3[27]: y[27] + u[27] - z[27] <= 1
 mccormick3[28]: y[28] + u[28] - z[28] <= 1
 mccormick3[29]: y[29] + u[29] - z[29] <= 1
 mccormick3[30]: y[30] + u[30] - z[30] <= 1
 mccormick3[31]: y[31] + u[31] - z[31] <= 1
 mccormick3[32]: y[32] + u[32] - z[32] <= 1
 mccormick3[33]: y[33] + u[33] - z[33] <= 1
 mccormick3[34]: y[34] + u[34] - z[34] <= 1
 mccormick3[35]: y[35] + u[35] - z[35] <= 1
 mccormick3[36]: y[36] + u[36] - z[36] <= 1
 mccormick3[37]: y[37] + u[37] - z[37] <= 1
 mccormick3[38]: y[38] + u[38] - z[38] <= 1
 mccormick3[39]: y[39] + u[39] - z[39] <= 1
 mccormick3[40]: y[40] + u[40] - z[40] <= 1
 mccormick3[41]: y[41] + u[41] - z[41] <= 1
 mccormick3[42]: y[42] + u[42] - z[42] <= 1
 mccormick3[43]: y[43] + u[43] - z[43] <= 1
 mccormick3[44]: y[44] + u[44] - z[44] <= 1
 mccormick3[45]: y[45] + u[45] - z[45] <= 1
 mccormick3[46]: y[46] + u[46] - z[46] <= 1
 mccormick3[47]: y[47] + u[47] - z[47] <= 1
 mccormick3[48]: y[48] + u[48] - z[48] <= 1
 mccormick3[49]: y[49] + u[49] - z[49] <= 1
 mccormick3[50]: y[50] + u[50] - z[50] <= 1
 mccormick3[51]: y[51] + u[51] - z[51] <= 1
 mccormick3[52]: y[52] + u[52] - z[52] <= 1
 mccormick3[53]: y[53] + u[53] - z[53] <= 1
 mccormick3[54]: y[54] + u[54] - z[54] <= 1
 mccormick3[55]: y[55] + u[55] - z[55] <= 1
 mccormick3[56]: y[56] + u[56] - z[56] <= 1
 mccormick3[57]: y[57] + u[57] - z[57] <= 1
 mccormick3[58]: y[58] + u[58] - z[58] <= 1
 mccormick3[59]: y[59] + u[59] - z[59] <= 1
Bounds
Binaries
 y[0] y[1] y[2] y[3] y[4] y[5] y[6] y[7] y[8] y[9] y[10] y[11] y[12] y[13]
 y[14] y[15] y[16] y[17] y[18] y[19] y[20] y[21] y[22] y[23] y[24] y[25]
 y[26] y[27] y[28] y[29] y[30] y[31] y[32] y[33] y[34] y[35] y[36] y[37]
 y[38] y[39] y[40] y[41] y[42] y[43] y[44] y[45] y[46] y[47] y[48] y[49]
 y[50] y[51] y[52] y[53] y[54] y[55] y[56] y[57] y[58] y[59] u[0] u[1] u[2]
 u[3] u[4] u[5] u[6] u[7] u[8] u[9] u[10] u[11] u[12] u[13] u[14] u[15]
 u[16] u[17] u[18] u[19] u[20] u[21] u[22] u[23] u[24] u[25] u[26] u[27]
 u[28] u[29] u[30] u[31] u[32] u[33] u[34] u[35] u[36] u[37] u[38] u[39]
 u[40] u[41] u[42] u[43] u[44] u[45] u[46] u[47] u[48] u[49] u[50] u[51]
 u[52] u[53] u[54] u[55] u[56] u[57] u[58] u[59] z[0] z[1] z[2] z[3] z[4]
 z[5] z[6] z[7] z[8] z[9] z[10] z[11] z[12] z[13] z[14] z[15] z[16] z[17]
 z[18] z[19] z[20] z[21] z[22] z[23] z[24] z[25] z[26] z[27] z[28] z[29]
 z[30] z[31] z[32] z[33] z[34] z[35] z[36] z[37] z[38] z[39] z[40] z[41]
 z[42] z[43] z[44] z[45] z[46] z[47] z[48] z[49] z[50] z[51] z[52] z[53]
 z[54] z[55] z[56] z[57] z[58] z[59]
End
